Instance: Data/Instances_txt/inst_200_30_2.txt
SetUpTime: 1038.068743944168

Gurobi 10.0.1 (mac64[x86]) logging started Mi  2 Aug 23:47:46 2023

Set parameter LogFile to value "Output/MILP_inst_200_30_2_2023-08-02_21-36-03.txt"
Set parameter TimeLimit to value 2700

Gurobi 10.0.1 (mac64[x86]) logging started Mi  2 Aug 23:47:46 2023

Set parameter LogFile to value "Output/MILP_inst_200_30_2_2023-08-02_21-36-03.txt"
Gurobi Optimizer version 10.0.1 build v10.0.1rc0 (mac64[x86])

CPU model: Intel(R) Core(TM) i5-1038NG7 CPU @ 2.00GHz
Thread count: 4 physical cores, 8 logical processors, using up to 8 threads

Optimize a model with 401 rows, 410851 columns and 3295696 nonzeros
Model fingerprint: 0xbb438112
Variable types: 0 continuous, 410851 integer (0 binary)
Coefficient statistics:
  Matrix range     [1e+00, 1e+00]
  Objective range  [2e+00, 2e+04]
  Bounds range     [1e+00, 1e+00]
  RHS range        [1e+00, 1e+00]
Presolve removed 0 rows and 0 columns (presolve time = 5s) ...
Presolve removed 0 rows and 91 columns
Presolve time: 6.90s
Presolved: 401 rows, 410760 columns, 3294940 nonzeros
Variable types: 0 continuous, 410760 integer (410760 binary)

Root simplex log...

Iteration    Objective       Primal Inf.    Dual Inf.      Time
       0    0.0000000e+00   2.020000e+02   0.000000e+00      9s

Starting sifting (using dual simplex for sub-problems)...

    Iter     Pivots    Primal Obj      Dual Obj        Time
       0          0     infinity      0.0000000e+00      9s
       1       2580   2.0200000e+08   2.0070179e+02      9s
       2       6584   2.0200000e+08   3.9761735e+02      9s
       3      10694   2.0200000e+08   5.9156919e+02     10s
       4      13906   2.0200000e+08   7.8302716e+02     10s
       5      17621   1.9654143e+08   2.5473000e+03     10s
       6      21303   1.6969347e+08   3.3920333e+03     10s
       7      24033   1.6729613e+08   3.9540963e+03     11s
       8      27088   1.6353982e+08   4.2394919e+03     11s
       9      30372   1.5275208e+08   4.6269098e+03     11s
      10      33960   1.4795236e+08   4.9076872e+03     11s
      11      39551   1.4665750e+08   5.3822510e+03     12s
      12      42860   1.4559880e+08   5.8399624e+03     12s
      13      46915   1.4430956e+08   6.2669224e+03     12s
      14      49722   1.4293605e+08   6.6418703e+03     13s
      15      54734   1.3548515e+08   7.1164288e+03     13s
      16      58978   1.2237196e+08   8.5893000e+03     14s
      17      63964   1.2017603e+08   8.8774759e+03     14s
      18      67687   1.1722007e+08   9.5332980e+03     15s
      19      72435   1.1168263e+08   1.0055323e+04     15s
      20      77745   1.0932895e+08   1.0335071e+04     16s
      21      83548   1.0560171e+08   1.1138989e+04     16s
      22      89612   1.0218903e+08   1.1824678e+04     17s
      23      94797   9.8072212e+07   1.2396100e+04     18s
      24     100967   9.1672100e+07   1.3018303e+04     19s
      25     107033   8.7708156e+07   1.4561325e+04     20s
      26     114422   8.2216539e+07   1.4915828e+04     21s
      27     123060   7.6653097e+07   1.5650897e+04     22s
      28     131520   7.1151279e+07   1.6995679e+04     23s
      29     141206   5.7145157e+07   1.7980599e+04     25s
      30     151826   4.6483053e+07   1.8767838e+04     27s
      31     164160   3.3224160e+07   1.9763883e+04     29s
      32     175509   2.7812233e+07   2.0301151e+04     32s
      33     187991   1.8150431e+07   2.0551734e+04     35s
      34     205762   1.1205098e+07   2.1319876e+04     39s
      35     216054   3.4136488e+06   2.1460598e+04     42s
      36     223968   1.8957304e+05   2.1535218e+04     44s
      37     230898   1.6651349e+05  -6.9096927e+04     47s
      38     238209   1.5243880e+05  -6.0516386e+04     49s
      39     246209   1.4004621e+05  -4.6803147e+04     52s
      40     252961   1.3260318e+05  -3.4802305e+04     54s
      41     260087   1.2658549e+05  -2.3715821e+04     57s
      42     269222   1.2207956e+05  -9.2672880e+02     60s
      43     277316   1.1678656e+05   1.6667789e+04     63s
      44     287442   1.1440854e+05   4.7246648e+04     67s
      45     297032   1.1058176e+05   6.6810854e+04     71s
      46     311578   1.0919713e+05   8.5594220e+04     77s
      47     327404   1.0883335e+05   1.0325206e+05     83s
      48     332904   1.0882201e+05   1.0896487e+05     84s

Sifting complete

  334891    1.1039495e+05   0.000000e+00   0.000000e+00     85s

Root relaxation: objective 1.103949e+05, 334891 iterations, 75.86 seconds (127.92 work units)
Total elapsed time = 85.03s

    Nodes    |    Current Node    |     Objective Bounds      |     Work
 Expl Unexpl |  Obj  Depth IntInf | Incumbent    BestBd   Gap | It/Node Time

     0     0 110394.947    0  350          - 110394.947      -     -   90s
     0     0 110396.706    0  356          - 110396.706      -     -   93s
     0     0 110399.563    0  356          - 110399.563      -     -   93s
     0     0 110404.229    0  357          - 110404.229      -     -   94s
     0     0 110404.229    0  357          - 110404.229      -     -  117s
     0     0 110426.761    0  332          - 110426.761      -     -  209s
     0     0 110427.545    0  341          - 110427.545      -     -  211s
     0     0 110428.881    0  340          - 110428.881      -     -  213s
     0     0 110430.647    0  345          - 110430.647      -     -  215s
     0     0 110430.810    0  346          - 110430.810      -     -  217s
     0     0 110431.027    0  343          - 110431.027      -     -  217s
     0     0 110431.185    0  340          - 110431.185      -     -  218s
     0     0 110807.764    0  376          - 110807.764      -     -  293s
     0     0 110811.687    0  369          - 110811.687      -     -  296s
     0     0 110827.350    0  374          - 110827.350      -     -  307s
     0     0 110827.928    0  375          - 110827.928      -     -  308s
     0     0 110828.155    0  367          - 110828.155      -     -  309s
     0     0 110828.193    0  370          - 110828.193      -     -  309s
     0     0 110828.253    0  371          - 110828.253      -     -  310s
     0     0 110828.318    0  370          - 110828.318      -     -  310s
     0     0 110828.376    0  371          - 110828.376      -     -  311s
     0     0 110828.428    0  370          - 110828.428      -     -  311s
     0     0 110828.457    0  367          - 110828.457      -     -  312s
     0     0 110954.028    0  393          - 110954.028      -     -  341s
     0     0 110954.051    0  392          - 110954.051      -     -  342s
     0     0 110954.152    0  396          - 110954.152      -     -  343s
     0     0 110954.174    0  398          - 110954.174      -     -  343s
     0     0 110954.269    0  398          - 110954.269      -     -  344s
     0     0 110954.287    0  401          - 110954.287      -     -  345s
     0     0 110954.400    0  400          - 110954.400      -     -  345s
     0     0 110954.407    0  400          - 110954.407      -     -  346s
     0     0 110954.536    0  401          - 110954.536      -     -  346s
     0     0 110954.566    0  399          - 110954.566      -     -  347s
     0     0 110954.695    0  398          - 110954.695      -     -  347s
     0     0 110955.949    0  402          - 110955.949      -     -  351s
     0     0 110956.020    0  400          - 110956.020      -     -  353s
     0     0 111174.819    0  417          - 111174.819      -     -  394s
     0     0 111176.305    0  418          - 111176.305      -     -  396s
     0     0 111177.234    0  418          - 111177.234      -     -  398s
     0     0 111177.310    0  411          - 111177.310      -     -  399s
     0     0 111218.704    0  428          - 111218.704      -     -  435s
     0     0 111218.750    0  434          - 111218.750      -     -  437s
     0     0 111218.751    0  434          - 111218.751      -     -  437s
     0     0 111223.583    0  455          - 111223.583      -     -  451s
     0     0 111223.648    0  453          - 111223.648      -     -  452s
     0     0 111228.639    0  443          - 111228.639      -     -  461s
     0     0 111347.176    0  471          - 111347.176      -     -  500s
     0     0 111349.489    0  477          - 111349.489      -     -  505s
     0     0 111349.582    0  474          - 111349.582      -     -  506s
     0     0 111349.648    0  478          - 111349.648      -     -  506s
     0     0 111349.692    0  479          - 111349.692      -     -  507s
     0     0 111349.712    0  476          - 111349.712      -     -  508s
     0     0 111349.725    0  476          - 111349.725      -     -  508s
     0     0 111349.734    0  477          - 111349.734      -     -  509s
     0     0 111349.742    0  476          - 111349.742      -     -  509s
     0     0 111349.748    0  475          - 111349.748      -     -  509s
     0     0 111349.753    0  477          - 111349.753      -     -  509s
     0     0 111422.214    0  473          - 111422.214      -     -  538s
     0     0 111422.921    0  478          - 111422.921      -     -  539s
     0     0 111423.611    0  478          - 111423.611      -     -  541s
     0     0 111424.224    0  484          - 111424.224      -     -  542s
     0     0 111424.644    0  481          - 111424.644      -     -  544s
     0     0 111424.829    0  474          - 111424.829      -     -  546s
     0     0 111424.842    0  466          - 111424.842      -     -  546s
     0     0 111442.964    0  473          - 111442.964      -     -  560s
     0     0 111443.089    0  476          - 111443.089      -     -  560s
     0     0 111443.242    0  475          - 111443.242      -     -  561s
     0     0 111443.452    0  480          - 111443.452      -     -  563s
     0     0 111443.564    0  479          - 111443.564      -     -  564s
     0     0 111443.649    0  475          - 111443.649      -     -  565s
     0     0 111443.775    0  475          - 111443.775      -     -  566s
     0     0 111443.803    0  475          - 111443.803      -     -  566s
     0     0 111443.928    0  474          - 111443.928      -     -  567s
     0     0 111443.983    0  475          - 111443.983      -     -  568s
     0     0 111444.124    0  475          - 111444.124      -     -  568s
     0     0 111445.361    0  479          - 111445.361      -     -  573s
     0     0 111445.504    0  478          - 111445.504      -     -  574s
     0     0 111445.553    0  478          - 111445.553      -     -  574s
     0     0 111445.634    0  476          - 111445.634      -     -  575s
     0     0 111445.647    0  475          - 111445.647      -     -  575s
     0     0 111445.664    0  476          - 111445.664      -     -  576s
     0     0 111445.689    0  476          - 111445.689      -     -  576s
     0     0 111445.701    0  475          - 111445.701      -     -  576s
     0     0 111445.724    0  476          - 111445.724      -     -  577s
     0     0 111445.737    0  475          - 111445.737      -     -  577s
     0     0 111445.754    0  475          - 111445.754      -     -  577s
     0     0 111511.945    0  500          - 111511.945      -     -  620s
     0     0 111512.252    0  498          - 111512.252      -     -  621s
     0     0 111512.498    0  500          - 111512.498      -     -  625s
     0     0 111512.730    0  499          - 111512.730      -     -  627s
     0     0 111512.913    0  501          - 111512.913      -     -  629s
     0     0 111513.337    0  500          - 111513.337      -     -  630s
     0     0 111513.531    0  503          - 111513.531      -     -  632s
     0     0 111513.678    0  501          - 111513.678      -     -  633s
     0     0 111514.093    0  500          - 111514.093      -     -  634s
     0     0 111514.220    0  501          - 111514.220      -     -  635s
     0     0 111514.499    0  504          - 111514.499      -     -  636s
     0     0 111544.702    0  486          - 111544.702      -     -  708s
     0     0 111545.235    0  479          - 111545.235      -     -  710s
     0     0 111545.541    0  484          - 111545.541      -     -  711s
     0     0 111545.618    0  480          - 111545.618      -     -  712s
     0     0 111545.618    0  493          - 111545.618      -     -  713s
     0     0 111549.244    0  501          - 111549.244      -     -  723s
     0     0 111549.245    0  503          - 111549.245      -     -  723s
     0     0 111551.272    0  510          - 111551.272      -     -  731s
     0     0 111551.283    0  507          - 111551.283      -     -  731s
     0     0 111601.167    0  533          - 111601.167      -     -  773s
     0     0 111601.552    0  535          - 111601.552      -     -  777s
     0     0 111601.822    0  535          - 111601.822      -     -  778s
     0     0 111602.110    0  533          - 111602.110      -     -  779s
     0     0 111602.368    0  534          - 111602.368      -     -  780s
     0     0 111602.610    0  534          - 111602.610      -     -  781s
     0     0 111602.835    0  535          - 111602.835      -     -  783s
     0     0 111602.931    0  536          - 111602.931      -     -  784s
     0     0 111603.040    0  536          - 111603.040      -     -  785s
     0     0 111603.072    0  536          - 111603.072      -     -  787s
     0     0 111603.144    0  536          - 111603.144      -     -  787s
     0     0 111604.586    0  534          - 111604.586      -     -  798s
     0     0 111604.612    0  535          - 111604.612      -     -  799s
     0     0 111604.638    0  529          - 111604.638      -     -  801s
     0     0 111604.649    0  531          - 111604.649      -     -  801s
     0     0 111604.660    0  531          - 111604.660      -     -  802s
     0     0 111604.671    0  528          - 111604.671      -     -  803s
     0     0 111604.674    0  526          - 111604.674      -     -  804s
     0     0 111604.674    0  526          - 111604.674      -     -  804s
     0     0 111604.675    0  523          - 111604.675      -     -  804s
     0     0 111604.751    0  526          - 111604.751      -     -  806s
     0     0 111643.756    0  561          - 111643.756      -     -  841s
     0     0 111643.851    0  559          - 111643.851      -     -  842s
     0     0 111643.934    0  559          - 111643.934      -     -  844s
     0     0 111643.991    0  561          - 111643.991      -     -  845s
     0     0 111644.015    0  561          - 111644.015      -     -  846s
     0     0 111644.091    0  564          - 111644.091      -     -  847s
     0     0 111644.121    0  559          - 111644.121      -     -  848s
     0     0 111644.131    0  552          - 111644.131      -     -  848s
     0     0 111652.154    0  555          - 111652.154      -     -  867s
     0     0 111652.232    0  555          - 111652.232      -     -  868s
     0     0 111652.243    0  555          - 111652.243      -     -  868s
     0     0 111652.260    0  554          - 111652.260      -     -  869s
     0     0 111652.264    0  553          - 111652.264      -     -  870s
     0     0 111652.776    0  553          - 111652.776      -     -  875s
     0     0 111677.354    0  580          - 111677.354      -     -  918s
     0     0 111677.480    0  581          - 111677.480      -     -  921s
     0     0 111677.524    0  582          - 111677.524      -     -  922s
     0     0 111677.525    0  582          - 111677.525      -     -  922s
     0     0 111677.525    0  582          - 111677.525      -     -  923s
     0     0 111677.526    0  581          - 111677.526      -     -  923s
     0     0 111677.536    0  582          - 111677.536      -     -  924s
     0     0 111677.536    0  582          - 111677.536      -     -  924s
     0     0 111677.554    0  582          - 111677.554      -     -  925s
     0     0 111677.555    0  583          - 111677.555      -     -  925s
     0     0 111677.562    0  583          - 111677.562      -     -  925s
     0     0 111682.971    0  586          - 111682.971      -     -  941s
     0     0 111682.989    0  585          - 111682.989      -     -  943s
     0     0 111683.001    0  586          - 111683.001      -     -  944s
     0     0 111683.004    0  586          - 111683.004      -     -  944s
     0     0 111683.014    0  585          - 111683.014      -     -  945s
     0     0 111683.015    0  585          - 111683.015      -     -  945s
     0     0 111683.018    0  586          - 111683.018      -     -  946s
     0     0 111683.018    0  586          - 111683.018      -     -  946s
     0     0 111683.019    0  586          - 111683.019      -     -  947s
     0     0 111683.019    0  586          - 111683.019      -     -  947s
     0     0 111698.354    0  601          - 111698.354      -     -  984s
     0     0 111698.434    0  599          - 111698.434      -     -  986s
     0     0 111698.475    0  599          - 111698.475      -     -  988s
     0     0 111698.521    0  600          - 111698.521      -     -  990s
     0     0 111698.557    0  597          - 111698.557      -     -  991s
     0     0 111698.591    0  599          - 111698.591      -     -  992s
     0     0 111698.647    0  599          - 111698.647      -     -  993s
     0     0 111698.655    0  599          - 111698.655      -     -  994s
     0     0 111698.671    0  598          - 111698.671      -     -  994s
     0     0 111698.688    0  599          - 111698.688      -     -  995s
     0     0 111698.697    0  598          - 111698.697      -     -  995s
     0     0 111699.092    0  597          - 111699.092      -     - 1005s
     0     0 111699.093    0  598          - 111699.093      -     - 1006s
     0     0 111718.826    0  609          - 111718.826      -     - 1044s
     0     0 111718.839    0  609          - 111718.839      -     - 1046s
     0     0 111718.852    0  609          - 111718.852      -     - 1048s
     0     0 111719.145    0  609          - 111719.145      -     - 1058s
     0     0 111727.943    0  620          - 111727.943      -     - 1097s
     0     0 111727.959    0  624          - 111727.959      -     - 1098s
     0     0 111727.973    0  626          - 111727.973      -     - 1099s
     0     0 111728.002    0  622          - 111728.002      -     - 1102s
     0     0 111728.002    0  622          - 111728.002      -     - 1109s
     0     2 111728.002    0  621          - 111728.002      -     - 1411s
     1     5 111730.538    1  619          - 111728.002      -  1910 1474s
     3     8 111732.951    2  607          - 111730.538      -  2700 1564s
     7    12 111741.454    3  592          - 111732.951      -  2561 1627s
    11    16 111741.261    3  605          - 111741.261      -  2325 1807s
    15    20 111742.731    4  602          - 111741.261      -  3088 1898s
    19    24 111779.646    4  581          - 111741.454      -  3198 1980s
    23    28 111789.449    5  565          - 111741.454      -  3058 2073s
    27    33 111743.636    5  598          - 111741.454      -  2864 2198s
    32    37 111769.402    6  587          - 111741.454      -  3093 2393s
    36    42 111782.824    7  579          - 111741.454      -  3443 2473s
    41    47 111832.578    7  557          - 111741.454      -  3323 2587s
    46    51 111844.701    8  561          - 111741.454      -  3321 2665s
    50    52 111922.842    8  546          - 111741.454      -  3255 2700s

Cutting planes:
  Clique: 276
  MIR: 3
  Zero half: 7
  RLT: 5

Explored 51 nodes (834972 simplex iterations) in 2700.25 seconds (3242.38 work units)
Thread count was 8 (of 8 available processors)

Solution count 0

Time limit reached
Best objective -, best bound 1.117420000000e+05, gap -

User-callback calls 246288, time in user-callback 1.17 sec

=========================

OUTPUT STATISTICS
Relaxed: false
Time since start: 3749.4534900188446
SetUpTime: 1038.068743944168
Objective value: 0
Solving time: 2711.1431000232697
